p cnf 160 114
c p distribution  0.875 0.125
c p distribution  0.875 0.125
c p distribution  0.875 0.125
c p distribution  0.875 0.125
c p distribution  0.875 0.125
c p distribution  0.875 0.125
c p distribution  0.875 0.125
c p distribution  0.875 0.125
c p distribution  0.875 0.125
c p distribution  0.875 0.125
c p distribution  0.875 0.125
c p distribution  0.875 0.125
c p distribution  0.875 0.125
c p distribution  0.875 0.125
c p distribution  0.875 0.125
c p distribution  0.875 0.125
c p distribution  0.875 0.125
c p distribution  0.875 0.125
c p distribution  0.875 0.125
c p distribution  0.875 0.125
c p distribution  0.875 0.125
c p distribution  0.875 0.125
c p distribution  0.875 0.125
c p distribution  0.875 0.125
c p distribution  0.875 0.125
c p distribution  0.875 0.125
c p distribution  0.875 0.125
c p distribution  0.875 0.125
c p distribution  0.875 0.125
c p distribution  0.875 0.125
c p distribution  0.875 0.125
c p distribution  0.875 0.125
c p distribution  0.875 0.125
c p distribution  0.875 0.125
c p distribution  0.875 0.125
c p distribution  0.875 0.125
c p distribution  0.875 0.125
c p distribution  0.875 0.125
c p distribution  0.875 0.125
c p distribution  0.875 0.125
c p distribution  0.875 0.125
c p distribution  0.875 0.125
c p distribution  0.875 0.125
c p distribution  0.875 0.125
c p distribution  0.875 0.125
c p distribution  0.875 0.125
c p distribution  0.875 0.125
c p distribution  0.875 0.125
c p distribution  0.875 0.125
c p distribution  0.875 0.125
c p distribution  0.875 0.125
c p distribution  0.875 0.125
c p distribution  0.875 0.125
c p distribution  0.875 0.125
c p distribution  0.875 0.125
c p distribution  0.875 0.125
133 0
-116 0
155 -156 -1 0
156 -155 -1 0
142 -138 -3 0
138 -142 -3 0
114 -149 -5 0
149 -114 -5 0
125 -128 -7 0
128 -125 -7 0
141 -160 -9 0
160 -141 -9 0
118 -135 -11 0
135 -118 -11 0
120 -137 -13 0
137 -120 -13 0
143 -149 -15 0
149 -143 -15 0
142 -146 -17 0
146 -142 -17 0
125 -127 -19 0
127 -125 -19 0
126 -154 -21 0
154 -126 -21 0
155 -156 -23 0
156 -155 -23 0
151 -140 -25 0
140 -151 -25 0
153 -154 -27 0
154 -153 -27 0
155 -118 -29 0
118 -155 -29 0
121 -115 -31 0
115 -121 -31 0
156 -131 -33 0
131 -156 -33 0
152 -160 -35 0
160 -152 -35 0
141 -133 -37 0
133 -141 -37 0
124 -134 -39 0
134 -124 -39 0
135 -113 -41 0
113 -135 -41 0
140 -117 -43 0
117 -140 -43 0
123 -145 -45 0
145 -123 -45 0
122 -148 -47 0
148 -122 -47 0
159 -157 -49 0
157 -159 -49 0
130 -125 -51 0
125 -130 -51 0
113 -127 -53 0
127 -113 -53 0
123 -147 -55 0
147 -123 -55 0
121 -116 -57 0
116 -121 -57 0
116 -115 -59 0
115 -116 -59 0
160 -129 -61 0
129 -160 -61 0
121 -146 -63 0
146 -121 -63 0
158 -144 -65 0
144 -158 -65 0
133 -129 -67 0
129 -133 -67 0
158 -134 -69 0
134 -158 -69 0
132 -115 -71 0
115 -132 -71 0
144 -147 -73 0
147 -144 -73 0
143 -152 -75 0
152 -143 -75 0
122 -148 -77 0
148 -122 -77 0
136 -127 -79 0
127 -136 -79 0
131 -157 -81 0
157 -131 -81 0
138 -133 -83 0
133 -138 -83 0
142 -136 -85 0
136 -142 -85 0
128 -117 -87 0
117 -128 -87 0
142 -152 -89 0
152 -142 -89 0
144 -147 -91 0
147 -144 -91 0
113 -125 -93 0
125 -113 -93 0
154 -124 -95 0
124 -154 -95 0
135 -128 -97 0
128 -135 -97 0
159 -145 -99 0
145 -159 -99 0
122 -113 -101 0
113 -122 -101 0
130 -120 -103 0
120 -130 -103 0
119 -145 -105 0
145 -119 -105 0
150 -119 -107 0
119 -150 -107 0
139 -149 -109 0
149 -139 -109 0
141 -140 -111 0
140 -141 -111 0

